2
150 2
41
22 1 1
25 1 1
29 1 1
30 1 1
31 1 1
32 1 1
33 1 1
34 1 1
38 1 1
40 1 1
43 1 2
44 1 2
46 1 2
47 1 1
49 1 2
51 1 1
52 1 1
54 1 1
57 1 2
59 1 1
63 1 2
64 1 1
65 1 1
67 1 1
73 1 1
74 1 1
75 1 1
76 1 1
77 1 1
78 1 1
79 1 2
81 1 2
84 1 1
85 1 1
89 1 1
91 1 2
92 1 1
94 1 1
96 1 1
99 1 1
100 1 1
